59
Time limit set to 60 seconds
Running CP solver
/home/omastto1/General-Optimization-Solver/src/solvers/mmrcpsp.py:42(stream:108:6): Warning: Cumulative expression 'pulse': height is zero, expression is zero everywhere.
                                                                                               VarCumulAtom_149 = pulse(task_0_mode_0, 0)
/home/omastto1/General-Optimization-Solver/src/solvers/mmrcpsp.py:42(stream:108:1252): Warning: Cumulative expression 'pulse': height is zero, expression is zero everywhere.
                                                                                                  VarCumulAtom_198 = pulse(task_17_mode_0, 0)
/home/omastto1/General-Optimization-Solver/src/solvers/mmrcpsp.py:42(stream:109:6): Warning: Cumulative expression 'pulse': height is zero, expression is zero everywhere.
                                                                                               VarCumulAtom_202 = pulse(task_0_mode_0, 0)
/home/omastto1/General-Optimization-Solver/src/solvers/mmrcpsp.py:42(stream:109:1253): Warning: Cumulative expression 'pulse': height is zero, expression is zero everywhere.
                                                                                                  VarCumulAtom_251 = pulse(task_17_mode_0, 0)
 ! --------------------------------------------------- CP Optimizer 20.1.0.0 --
 ! Minimization problem - 69 variables, 51 constraints
 ! TimeLimit            = 60
 ! Workers              = 14
 ! LogVerbosity         = Terse
 ! Initial process time : 0.01s (0.01s extraction + 0.00s propagation)
 !  . Log search space  : 160.4 (before), 160.4 (after)
 !  . Memory usage      : 754.6 kB (before), 754.6 kB (after)
 ! Using parallel search with 14 workers.
 ! ----------------------------------------------------------------------------
 !          Best Branches  Non-fixed    W       Branch decision
                        0         69                 -
 + New bound is 26
 ! Using iterative diving.
 ! Using temporal relaxation.
 *            46       48  0.70s        1      (gap is 43.48%)
 *            45      111  0.70s        1      (gap is 42.22%)
 *            41      151  0.70s        1      (gap is 36.59%)
 *            39      191  0.70s        1      (gap is 33.33%)
 *            38      251  0.70s        1      (gap is 31.58%)
 *            37      335  0.70s        1      (gap is 29.73%)
 *            35      406  0.70s        1      (gap is 25.71%)
 *            32      457  0.70s        1      (gap is 18.75%)
 *            31      530  0.70s        1      (gap is 16.13%)
 *            29     1392  0.70s        1      (gap is 10.34%)
 *            28     1771  0.70s        4      (gap is 7.14%)
 *            27     1399  0.70s        9      (gap is 3.70%)
 ! Using failure-directed search.
 *            26     6067  1.32s        2      (gap is 0.00%)
 ! ----------------------------------------------------------------------------
 ! Search completed, 13 solutions found.
 ! Best objective         : 26 (optimal - effective tol. is 0)
 ! Best bound             : 26
 ! ----------------------------------------------------------------------------
 ! Number of branches     : 166158
 ! Number of fails        : 40926
 ! Total memory usage     : 9.7 MB (9.6 MB CP Optimizer + 0.1 MB Concert)
 ! Time spent in solve    : 1.74s (1.73s engine + 0.01s extraction)
 ! Search speed (br. / s) : 96045.1
 ! ----------------------------------------------------------------------------
task_0: (start=0, end=0, size=0, length=0)
Task 0 is scheduled in mode 0 from 0 to 0
task_1: (start=0, end=3, size=3, length=3)
Task 1 is scheduled in mode 0 from 0 to 3
task_2: (start=0, end=1, size=1, length=1)
Task 2 is scheduled in mode 0 from 0 to 1
task_3: (start=8, end=11, size=3, length=3)
Task 3 is scheduled in mode 1 from 8 to 11
task_4: (start=3, end=5, size=2, length=2)
Task 4 is scheduled in mode 0 from 3 to 5
task_5: (start=3, end=8, size=5, length=5)
Task 5 is scheduled in mode 2 from 3 to 8
task_6: (start=13, end=16, size=3, length=3)
Task 6 is scheduled in mode 0 from 13 to 16
task_7: (start=1, end=10, size=9, length=9)
Task 7 is scheduled in mode 2 from 1 to 10
task_8: (start=14, end=21, size=7, length=7)
Task 8 is scheduled in mode 2 from 14 to 21
task_9: (start=3, end=9, size=6, length=6)
Task 9 is scheduled in mode 2 from 3 to 9
task_10: (start=11, end=13, size=2, length=2)
Task 10 is scheduled in mode 0 from 11 to 13
task_11: (start=5, end=14, size=9, length=9)
Task 11 is scheduled in mode 0 from 5 to 14
task_12: (start=16, end=25, size=9, length=9)
Task 12 is scheduled in mode 1 from 16 to 25
task_13: (start=21, end=25, size=4, length=4)
Task 13 is scheduled in mode 1 from 21 to 25
task_14: (start=25, end=26, size=1, length=1)
Task 14 is scheduled in mode 0 from 25 to 26
task_15: (start=25, end=26, size=1, length=1)
Task 15 is scheduled in mode 0 from 25 to 26
task_16: (start=16, end=26, size=10, length=10)
Task 16 is scheduled in mode 2 from 16 to 26
task_17: (start=26, end=26, size=0, length=0)
Task 17 is scheduled in mode 0 from 26 to 26
Optimal solution found
Objective value: 26
Solution is optimal.
